402503.71 0
0 2391 2390 2389 2387 2388 1354 1355 1353 1352 1349 1346 1348 1347 11 12 13 14 15 16 59 58 57 60 61 62 63 64 65 66 67 68 69 70 71 72 73 74 75 76 77 79 78 85 84 83 82 81 80 179 178 177 176 175 174 173 172 171 170 169 168 167 166 165 164 163 162 161 160 159 88 87 86 1228 1229 1230 1231 1232 1233 1234 1235 1236 1237 1238 1239 1240 1241 1242 1243 1244 1245 1246 1247 1248 1249 1250 1251 1252 1253 1254 1255 1256 1257 1258 1259 1260 1261 1262 1263 1264 1265 1266 1267 1268 1269 1270 1271 1272 1273 1344 1345 1343 1342 1341 1340 1339 1338 1274 1275 1276 1277 1278 1279 1280 1281 1282 1283 1284 1285 1287 1286 1337 1336 1335 1334 1333 1332 1331 1330 1329 1327 1328 1393 1394 1396 1395 1390 1389 1384 1385 1386 1387 1388 1391 1392 1357 1356 1358 1359 1361 1360 1364 1380 1381 1382 1383 1377 1378 1379 1375 1376 1374 1373 1372 1371 1450 1447 1446 1399 1398 1397 1326 1325 1324 1288 1289 1290 1291 1292 1293 1294 1295 1296 1297 1298 1299 1300 1301 1323 1302 1303 1304 1305 1306 1307 1308 1309 1310 1311 1312 1313 1314 1315 1316 1317 1318 1319 1320 1322 1321 1400 1401 1402 1403 1404 1405 1406 1407 1408 1409 1410 1411 1412 1413 1414 1415 1416 1417 1418 1419 1420 1421 1422 1423 1424 1425 1426 1427 1428 1429 1430 1431 1432 1433 1434 1435 1436 1437 1438 1439 1440 1441 1444 1445 1443 1442 1448 1449 1451 1452 1453 1454 1455 1456 1457 1458 1459 1460 1461 1462 1463 1464 1465 1466 1467 1468 1469 1470 1471 1472 1473 1474 1475 1476 1477 1478 1479 1480 1481 1482 1484 1483 1486 1487 1500 1501 1502 1503 1504 1505 1506 1507 1508 1512 1511 1513 1514 1515 1516 1517 1518 1519 1522 1521 1520 1581 1582 1580 1579 1583 1584 1585 1586 1587 1588 1589 1591 1590 1499 1498 1497 1592 1593 1496 1493 1492 1488 1485 1489 1490 1491 1494 1495 1594 1595 1596 1597 1598 1599 1600 1601 1602 1603 1604 1605 1606 1607 1608 1609 1610 1611 1612 1614 1613 1635 1634 1633 1636 1637 1638 1639 1640 1641 1642 1629 1630 1628 1627 1626 1625 1624 1631 1632 1623 1622 1621 1620 1619 1618 1617 2155 2154 2153 2152 2151 2150 2149 2148 2147 2146 1663 1664 1665 1666 1667 1661 1662 1660 1659 1655 1654 1653 1643 1644 1645 1646 1647 1648 1649 1650 1651 1652 1656 1657 1658 1677 1676 1675 1674 1673 1672 1671 1670 1668 1669 2139 2140 2145 2144 2143 2142 2141 2137 2138 2136 2135 2134 1678 1679 1680 1681 1682 1683 1684 1685 1686 1687 1688 1689 1690 1691 1692 1693 1694 1695 1696 1697 1698 1699 1723 1724 1722 1725 1726 1727 1728 1729 1730 1731 1732 1733 1734 1735 1736 1737 1738 1739 1740 1741 1742 1743 1744 1745 1746 1747 1748 1749 1750 1751 1752 1753 1754 1757 1758 1759 1760 1761 1762 1763 1710 1711 1712 1713 1719 1720 1721 1700 1701 1702 1703 1704 1705 1706 1707 1708 1717 1718 1714 1715 1716 1709 1764 1765 1766 1767 1768 1769 1772 1771 1770 1805 1806 1807 1808 1809 1810 1811 1812 1756 1755 1813 1814 1815 1816 1817 1818 1917 1918 1919 1920 1921 1922 1923 1804 1803 1801 1802 1800 1799 1798 1797 1796 1795 1794 1791 1790 1792 1793 1785 1784 1780 1773 1774 1775 1776 1777 1778 1779 1781 1783 1782 1786 1787 1788 1789 2133 2132 2131 2130 2129 2128 1986 1987 1988 2003 2004 2005 2006 2007 2008 1999 2000 2001 2002 1989 1990 1991 2124 2125 2127 2126 2122 2123 2121 2120 2119 2118 2117 2116 2115 2114 2113 2112 2111 2110 2109 2108 2107 2106 2105 2104 2103 2176 2175 2174 2173 2158 2157 2156 1616 1615 2159 2160 2161 2162 2172 2171 2163 2164 2165 2166 2167 2170 2169 2168 1578 1577 1576 1575 1574 1573 1572 1571 1570 1569 1568 1567 1566 1565 1564 1529 1530 1531 1528 1527 1525 1524 1523 1510 1509 1526 1533 1532 1534 1535 1536 1537 1538 1540 1539 1543 1542 1541 1545 1547 1548 1546 1544 1552 1551 1549 1550 1553 1554 1555 1556 1557 1558 1559 1561 1560 1562 1563 2300 2299 2298 2297 2296 2295 2294 2288 2287 2286 2285 2309 2308 2307 2301 2302 2303 2306 2304 2305 2329 2330 2331 2332 2333 2334 2335 2336 2337 2338 2339 2340 2341 2342 2343 2344 2345 2346 2347 2348 2349 2350 2240 2239 2241 2242 2243 2244 2245 2246 2247 2248 2249 2250 2251 2252 2253 2254 2255 2256 2257 2258 2259 2260 2261 2262 2263 2264 2320 2321 2322 2323 2324 2325 2326 2327 2328 2310 2311 2312 2313 2314 2315 2316 2317 2319 2318 2265 2266 2267 2268 2269 2270 2276 2275 2274 2271 2273 2272 2213 2214 2215 2216 2217 2218 2219 2220 2221 2222 2223 2224 2225 2227 2226 2228 2229 2230 2231 2232 2233 2234 2235 2236 2237 2238 228 229 230 231 232 233 234 235 236 237 238 239 240 241 242 243 244 246 245 248 249 262 263 264 265 266 267 268 269 270 273 274 275 276 277 278 279 281 280 272 271 285 286 287 288 289 290 293 291 292 323 322 321 320 319 318 317 316 315 312 311 313 314 306 305 301 294 295 296 297 298 299 300 302 304 303 307 308 132 131 130 129 128 127 126 142 144 143 122 121 119 118 120 123 124 125 1110 1109 1111 1112 1113 1114 116 117 115 1115 1116 1117 1118 1119 1120 1121 1122 1123 1124 1125 113 114 111 112 1126 1127 1128 1135 1136 1089 1088 1087 1086 1085 1084 1083 1082 1081 1080 1093 1092 1090 1091 1094 1095 1097 1098 1099 1100 1101 1102 1103 1106 1108 1107 1105 1104 1096 1077 1078 1079 1076 1075 1074 1073 1072 1071 1070 1069 1068 1067 1066 1065 1064 1063 1062 1061 1060 1059 1058 1057 1056 1055 1031 1030 1032 1029 1028 1033 1034 1035 1027 1026 1023 1022 1014 1015 1016 1013 1012 1011 1010 1009 1008 1003 1004 1005 1006 1007 1017 1018 1019 1020 1021 1024 1025 324 325 326 327 328 329 330 331 332 333 334 335 336 337 338 339 340 341 342 283 284 282 343 344 345 346 347 348 349 350 351 353 352 261 260 259 354 355 258 255 254 250 247 251 252 253 256 257 356 357 358 359 360 361 362 363 2212 2211 2210 2209 2208 2207 2205 2206 2075 2076 2077 2078 2079 2080 2081 2082 2083 2084 2085 2086 2087 2088 2204 2203 2202 2192 2193 2194 2195 2201 2200 2199 2198 2196 2197 2277 2278 2279 2280 2281 2282 2284 2283 2290 2289 2293 2292 2291 2183 2184 2185 2182 2181 2180 2179 2178 2177 2186 2187 2188 2102 2101 2100 2099 2098 2189 2190 2191 2089 2090 2091 2092 2093 2094 2095 2096 2097 1993 1992 1994 1995 1996 1997 1998 2009 2010 2011 2012 2013 2014 2015 2016 2017 2022 2023 2026 2025 2024 2021 2018 2019 2020 2055 2056 2054 2053 2052 2051 2050 2049 2048 2032 2030 2031 2027 2028 2029 2035 2034 2033 2037 2036 2038 2039 2040 2041 1864 1866 1867 1865 1959 1958 1960 1961 1962 1963 1970 1969 1964 1965 1966 1967 1968 1971 1957 1956 1955 1954 1973 1974 1972 1975 1976 1977 1978 1979 1980 1983 1985 1984 1982 1981 1953 1952 1951 1950 1949 1948 1947 1946 1945 1944 1943 1942 1941 1940 1939 1938 1937 1936 1935 1934 1933 1932 1931 1930 1929 1928 1927 1924 1925 1926 1910 1909 1908 1907 1906 1905 1904 1903 1902 1889 1888 1887 1886 1885 1884 1883 1882 1881 1880 1879 1878 1877 1876 1875 1874 1873 1872 1871 1870 1869 1868 1860 1861 1863 1862 1859 1858 1857 1856 1855 1854 1853 1851 1852 1850 1849 1848 1847 1846 1845 1844 1843 1842 1841 1837 1835 1832 1830 1831 1892 1891 1890 1893 1894 1895 1896 1897 1898 1899 1901 1900 1911 1912 1913 1914 1915 1916 1819 1820 1821 1822 1823 1824 1825 1826 1827 1828 1829 1833 1834 1836 1838 1839 1840 597 598 596 600 599 606 605 607 608 609 610 611 612 613 620 621 619 614 615 618 616 617 674 675 676 677 678 679 673 672 671 670 669 668 667 666 631 632 633 630 629 628 627 626 625 624 623 622 571 570 572 573 574 575 576 577 578 569 568 567 566 565 564 563 559 560 561 562 579 582 581 580 604 603 602 601 595 594 593 592 591 590 589 588 587 586 583 585 584 558 557 556 555 554 553 552 551 550 549 548 547 546 545 544 543 542 541 539 540 643 640 639 638 637 636 635 634 641 642 644 645 646 647 648 649 650 808 809 810 811 814 813 812 804 803 801 795 796 797 798 799 800 802 805 806 807 651 652 653 654 655 656 657 658 659 660 661 663 662 664 665 783 782 779 778 680 681 682 685 686 687 688 689 684 683 774 775 776 777 780 781 784 785 773 786 787 788 789 790 791 792 793 794 769 768 767 766 770 771 772 761 762 760 759 758 757 756 754 755 763 765 764 747 746 748 749 750 751 752 753 692 691 693 690 694 695 696 697 698 699 700 701 702 703 704 705 706 707 708 709 710 711 713 712 714 715 716 717 743 744 745 742 741 740 739 738 737 736 735 734 733 732 731 730 718 719 720 723 724 722 721 729 728 727 725 726 820 821 822 823 894 893 892 896 895 897 898 899 900 901 902 903 904 905 906 908 909 910 913 914 915 912 911 907 891 890 889 888 886 887 879 880 881 882 885 884 883 917 918 919 916 922 920 921 923 924 925 926 927 928 929 930 931 932 410 409 411 876 877 878 875 874 873 872 871 870 869 868 867 866 865 864 862 861 860 859 858 857 856 855 854 853 852 851 850 863 839 838 837 833 832 828 829 831 830 827 826 825 824 819 818 817 816 815 834 835 836 840 841 842 843 844 845 846 847 849 848 450 451 452 453 454 455 456 457 458 459 460 461 462 463 464 465 449 448 447 446 443 442 441 444 445 466 467 468 469 470 471 472 473 474 477 476 475 439 440 437 438 436 435 434 433 432 431 430 429 428 427 426 382 381 380 379 483 484 485 486 482 481 478 479 480 487 488 489 490 491 494 495 496 497 498 500 499 493 492 501 502 503 504 505 506 507 509 512 513 514 515 516 517 518 520 521 528 527 522 523 524 525 526 529 530 531 532 533 534 535 536 537 538 519 511 510 508 2042 2043 2044 2045 2046 2047 2058 2057 2059 2060 2061 2062 2063 2064 2065 2066 2067 2068 2069 2070 2071 2072 2073 2074 364 365 366 367 368 369 370 371 372 373 374 375 376 377 378 383 384 385 386 387 388 389 390 391 392 393 395 394 425 424 423 422 421 420 419 418 417 416 415 414 413 412 396 397 398 399 400 401 402 403 404 405 406 407 408 933 934 935 936 937 938 999 1000 1001 1002 995 994 993 1044 1045 1043 1042 1041 1040 1039 1038 1037 1036 1054 1053 1052 1051 1050 1049 1048 1047 1046 990 989 991 992 996 997 998 939 940 941 942 943 944 945 946 947 948 949 950 951 953 952 954 955 956 957 958 959 960 963 964 962 961 969 970 974 981 982 983 984 985 986 988 987 980 979 978 977 976 975 973 971 972 968 967 966 965 1159 1158 1157 1156 1154 1153 1152 1151 1155 1160 1161 1162 1163 1164 1165 1167 1168 1169 1172 1173 1174 1171 1170 1166 1150 1149 1148 1147 1145 1146 1138 1137 1134 1133 1180 1179 1178 1177 1139 1140 1141 1144 1143 1142 1176 1175 1181 1182 1183 1184 1185 1186 1187 1188 1189 1190 1191 1192 1193 1194 1195 1196 1197 1198 1132 1199 1200 1201 1202 1203 1204 1205 1206 1207 1208 1209 1210 1211 1212 1131 1130 1129 109 110 108 107 106 105 104 103 102 101 100 1214 1213 1215 1216 1217 1218 1219 1220 1221 1222 1223 1224 1225 1227 1226 99 98 97 96 95 94 93 92 91 89 90 155 154 153 156 158 157 152 151 150 149 148 147 146 145 139 140 141 137 138 136 135 134 133 310 309 221 222 223 224 225 227 226 201 220 219 218 217 216 215 214 213 212 211 210 209 208 207 206 205 204 203 202 200 199 198 197 196 195 194 193 192 191 190 189 188 187 186 185 184 183 182 180 181 50 51 54 55 56 53 52 31 30 32 48 49 47 46 45 44 43 42 41 40 39 38 36 37 33 34 35 2359 2358 2357 2356 2355 2354 2353 2352 2351 2370 2378 2379 2381 1370 1369 1368 1367 1366 1365 1363 1362 2386 2385 2384 2383 2382 2380 2377 2376 2375 2374 2373 2372 2371 2369 2368 2365 2364 2363 2362 2361 2366 2367 2360 29 28 27 26 25 24 23 22 21 20 19 18 17 10 9 8 1350 1351 7 6 5 4 3 2 1